STP File, STP Format Version 1.0

SECTION Comments
Name "mst-reduction-test"
Creator "Morete"
Problem "Prize-Collecting Steiner Problem in Graphs"
END

SECTION Graph
Nodes 6
Edges 6
E 1 2 10
E 2 3 50
E 3 4 50
E 4 5 20
E 5 6 9
E 6 1 30
END

SECTION Terminals
Terminals 6
TP 1 15
TP 2 51
TP 3 51
TP 4 51
TP 5 10
TP 6 10
END

EOF
